pymatgen v2019.11.11 with grid density = 6000 / atom
0
Monkhorst
12 12 12
