pymatgen v1.1 with grid density = 11 / atom
0
Monkhorst
6 6 6
