Cd1 F2                                  
   1.00000000000000     
     3.3634919999999999    0.0000000000000000    1.9419130000000000
     1.1211640000000000    3.1711309999999999    1.9419130000000000
     0.0000000000000000    0.0000000000000000    3.8838260000000000
   Cd   F 
     1     2
Direct
  0.0000000000000000  0.0000000000000000  0.0000000000000000
  0.7500000000000000  0.7500000000000000  0.7500000000000000
  0.2500000000000000  0.2500000000000000  0.2500000000000000
 
  0.00000000E+00  0.00000000E+00  0.00000000E+00
  0.00000000E+00  0.00000000E+00  0.00000000E+00
  0.00000000E+00  0.00000000E+00  0.00000000E+00
